param n := 120;
param c := 1000;
param : V : p w :=
   0	 387	 377
   1	 294	 284
   2	 349	 339
   3	 376	 366
   4	 270	 260
   5	 384	 374
   6	 479	 469
   7	 263	 253
   8	 288	 278
   9	 407	 397
  10	 302	 292
  11	 321	 311
  12	 439	 429
  13	 270	 260
  14	 321	 311
  15	 458	 448
  16	 263	 253
  17	 309	 299
  18	 438	 428
  19	 279	 269
  20	 313	 303
  21	 501	 491
  22	 261	 251
  23	 268	 258
  24	 367	 357
  25	 275	 265
  26	 388	 378
  27	 360	 350
  28	 330	 320
  29	 340	 330
  30	 463	 453
  31	 260	 250
  32	 307	 297
  33	 390	 380
  34	 270	 260
  35	 370	 360
  36	 481	 471
  37	 268	 258
  38	 281	 271
  39	 401	 391
  40	 300	 290
  41	 329	 319
  42	 475	 465
  43	 264	 254
  44	 291	 281
  45	 430	 420
  46	 264	 254
  47	 336	 326
  48	 414	 404
  49	 307	 297
  50	 309	 299
  51	 374	 364
  52	 310	 300
  53	 346	 336
  54	 380	 370
  55	 313	 303
  56	 337	 327
  57	 368	 358
  58	 279	 269
  59	 383	 373
  60	 381	 371
  61	 264	 254
  62	 385	 375
  63	 461	 451
  64	 267	 257
  65	 302	 292
  66	 390	 380
  67	 305	 295
  68	 335	 325
  69	 367	 357
  70	 283	 273
  71	 380	 370
  72	 369	 359
  73	 328	 318
  74	 333	 323
  75	 467	 457
  76	 272	 262
  77	 291	 281
  78	 451	 441
  79	 265	 255
  80	 314	 304
  81	 478	 468
  82	 267	 257
  83	 285	 275
  84	 501	 491
  85	 262	 252
  86	 267	 257
  87	 369	 359
  88	 276	 266
  89	 385	 375
  90	 469	 459
  91	 262	 252
  92	 299	 289
  93	 437	 427
  94	 262	 252
  95	 331	 321
  96	 471	 461
  97	 273	 263
  98	 286	 276
  99	 435	 425
 100	 296	 286
 101	 299	 289
 102	 370	 360
 103	 287	 277
 104	 373	 363
 105	 412	 402
 106	 307	 297
 107	 311	 301
 108	 465	 455
 109	 270	 260
 110	 295	 285
 111	 503	 493
 112	 260	 250
 113	 267	 257
 114	 388	 378
 115	 309	 299
 116	 333	 323
 117	 400	 390
 118	 295	 285
 119	 335	 325
;

set E :=
   0	   1
   0	   3
   0	   9
   0	  10
   0	  11
   0	  12
   0	  13
   0	  25
   0	  26
   0	  32
   0	  33
   0	  35
   0	  38
   0	  42
   0	  47
   0	  55
   0	  58
   0	  59
   0	  64
   0	  65
   0	  68
   0	  72
   0	  74
   0	  77
   0	  79
   0	  81
   0	  82
   0	  84
   0	  95
   0	 102
   0	 103
   0	 104
   0	 107
   0	 117
   1	   9
   1	  15
   1	  16
   1	  22
   1	  23
   1	  27
   1	  30
   1	  33
   1	  34
   1	  44
   1	  51
   1	  52
   1	  60
   1	  62
   1	  63
   1	  65
   1	  72
   1	  76
   1	  78
   1	  80
   1	  82
   1	  97
   1	 102
   1	 105
   1	 112
   1	 113
   1	 115
   2	   6
   2	  10
   2	  11
   2	  12
   2	  13
   2	  15
   2	  16
   2	  24
   2	  36
   2	  40
   2	  41
   2	  44
   2	  46
   2	  49
   2	  53
   2	  56
   2	  61
   2	  65
   2	  66
   2	  70
   2	  73
   2	  74
   2	  78
   2	  82
   2	  84
   2	  87
   2	  90
   2	  92
   2	  95
   2	  97
   2	  99
   2	 100
   2	 102
   2	 103
   2	 104
   2	 114
   2	 117
   3	   5
   3	  15
   3	  16
   3	  20
   3	  22
   3	  24
   3	  34
   3	  45
   3	  46
   3	  49
   3	  53
   3	  55
   3	  59
   3	  61
   3	  64
   3	  66
   3	  69
   3	  70
   3	  76
   3	  82
   3	  85
   3	  87
   3	  88
   3	  93
   3	  95
   3	  98
   3	 106
   3	 107
   3	 111
   3	 112
   3	 114
   3	 116
   4	   5
   4	  11
   4	  12
   4	  15
   4	  16
   4	  22
   4	  28
   4	  31
   4	  33
   4	  36
   4	  37
   4	  38
   4	  40
   4	  43
   4	  45
   4	  46
   4	  51
   4	  57
   4	  58
   4	  67
   4	  68
   4	  70
   4	  71
   4	  72
   4	  76
   4	  78
   4	  79
   4	  81
   4	  83
   4	  87
   4	  93
   4	  98
   4	 102
   4	 108
   4	 110
   4	 114
   4	 116
   4	 119
   5	   7
   5	   8
   5	  10
   5	  11
   5	  14
   5	  18
   5	  25
   5	  30
   5	  32
   5	  33
   5	  51
   5	  52
   5	  60
   5	  63
   5	  66
   5	  67
   5	  69
   5	  70
   5	  71
   5	  74
   5	  76
   5	  77
   5	  79
   5	  80
   5	  88
   5	  89
   5	  91
   5	  95
   5	 101
   5	 104
   5	 105
   5	 112
   5	 115
   6	   8
   6	   9
   6	  10
   6	  15
   6	  20
   6	  21
   6	  24
   6	  27
   6	  29
   6	  30
   6	  32
   6	  34
   6	  35
   6	  40
   6	  41
   6	  43
   6	  46
   6	  48
   6	  49
   6	  53
   6	  56
   6	  60
   6	  61
   6	  63
   6	  65
   6	  68
   6	  70
   6	  72
   6	  77
   6	  78
   6	  81
   6	  85
   6	  91
   6	  93
   6	  94
   6	  95
   6	  96
   6	  97
   6	  98
   6	 102
   6	 104
   6	 107
   6	 108
   6	 110
   6	 111
   6	 112
   7	  10
   7	  12
   7	  33
   7	  36
   7	  38
   7	  39
   7	  44
   7	  46
   7	  54
   7	  55
   7	  56
   7	  58
   7	  60
   7	  74
   7	  75
   7	  76
   7	  81
   7	  82
   7	  83
   7	  86
   7	  95
   7	 100
   7	 101
   7	 106
   7	 110
   7	 111
   7	 112
   7	 113
   7	 118
   8	  15
   8	  16
   8	  20
   8	  23
   8	  26
   8	  27
   8	  28
   8	  30
   8	  36
   8	  43
   8	  44
   8	  48
   8	  50
   8	  53
   8	  58
   8	  62
   8	  63
   8	  65
   8	  70
   8	  71
   8	  74
   8	  76
   8	  80
   8	  84
   8	  87
   8	  92
   8	  93
   8	  96
   8	  99
   8	 100
   8	 101
   8	 103
   8	 105
   8	 107
   8	 109
   8	 111
   8	 115
   8	 117
   9	  13
   9	  14
   9	  18
   9	  21
   9	  23
   9	  25
   9	  29
   9	  33
   9	  34
   9	  35
   9	  39
   9	  40
   9	  41
   9	  46
   9	  48
   9	  49
   9	  50
   9	  51
   9	  55
   9	  56
   9	  57
   9	  67
   9	  73
   9	  74
   9	  75
   9	  81
   9	  82
   9	  85
   9	  87
   9	  88
   9	  92
   9	  95
   9	  98
   9	 103
   9	 104
   9	 105
   9	 116
   9	 117
   9	 118
   9	 119
  10	  12
  10	  15
  10	  17
  10	  23
  10	  26
  10	  33
  10	  34
  10	  35
  10	  39
  10	  41
  10	  43
  10	  44
  10	  46
  10	  48
  10	  50
  10	  51
  10	  57
  10	  71
  10	  72
  10	  78
  10	  91
  10	  92
  10	  93
  10	  96
  10	  97
  10	 103
  10	 104
  10	 106
  10	 110
  10	 113
  10	 115
  11	  14
  11	  19
  11	  20
  11	  21
  11	  24
  11	  26
  11	  30
  11	  32
  11	  35
  11	  37
  11	  45
  11	  46
  11	  50
  11	  61
  11	  66
  11	  68
  11	  69
  11	  77
  11	  82
  11	  85
  11	  87
  11	  93
  11	  95
  11	  96
  11	 102
  11	 103
  11	 108
  11	 111
  11	 114
  12	  13
  12	  17
  12	  19
  12	  20
  12	  21
  12	  23
  12	  25
  12	  27
  12	  29
  12	  33
  12	  37
  12	  39
  12	  40
  12	  50
  12	  52
  12	  54
  12	  60
  12	  61
  12	  63
  12	  65
  12	  66
  12	  70
  12	  71
  12	  72
  12	  73
  12	  74
  12	  76
  12	  78
  12	  81
  12	  83
  12	  88
  12	  90
  12	  93
  12	  97
  12	  99
  12	 100
  12	 101
  12	 104
  12	 108
  12	 112
  12	 116
  12	 119
  13	  20
  13	  25
  13	  29
  13	  42
  13	  58
  13	  59
  13	  60
  13	  63
  13	  64
  13	  67
  13	  70
  13	  71
  13	  72
  13	  73
  13	  78
  13	  79
  13	  80
  13	  81
  13	  82
  13	  89
  13	  92
  13	  97
  13	  98
  13	  99
  13	 104
  13	 106
  13	 109
  13	 110
  13	 115
  13	 116
  13	 118
  14	  17
  14	  19
  14	  21
  14	  28
  14	  32
  14	  39
  14	  42
  14	  44
  14	  46
  14	  50
  14	  57
  14	  61
  14	  67
  14	  77
  14	  85
  14	  86
  14	  87
  14	  98
  14	 104
  14	 106
  14	 109
  14	 113
  14	 115
  14	 116
  14	 117
  14	 118
  15	  21
  15	  23
  15	  25
  15	  26
  15	  27
  15	  30
  15	  31
  15	  38
  15	  40
  15	  41
  15	  44
  15	  51
  15	  54
  15	  56
  15	  60
  15	  63
  15	  65
  15	  67
  15	  76
  15	  81
  15	  83
  15	  92
  15	  93
  15	  98
  15	 101
  15	 105
  15	 108
  15	 111
  15	 113
  15	 114
  15	 115
  15	 119
  16	  18
  16	  34
  16	  43
  16	  46
  16	  48
  16	  54
  16	  58
  16	  62
  16	  63
  16	  64
  16	  67
  16	  70
  16	  73
  16	  75
  16	  80
  16	  84
  16	  85
  16	  87
  16	  96
  16	  98
  16	 100
  16	 101
  16	 102
  16	 107
  16	 110
  16	 112
  16	 113
  16	 115
  16	 116
  16	 119
  17	  20
  17	  22
  17	  24
  17	  27
  17	  36
  17	  39
  17	  42
  17	  45
  17	  48
  17	  51
  17	  53
  17	  55
  17	  62
  17	  65
  17	  66
  17	  78
  17	  80
  17	  81
  17	  87
  17	  91
  17	  94
  17	  96
  17	  97
  17	  99
  17	 100
  17	 104
  17	 105
  17	 111
  17	 112
  17	 114
  17	 117
  17	 119
  18	  23
  18	  27
  18	  38
  18	  41
  18	  42
  18	  46
  18	  51
  18	  56
  18	  58
  18	  62
  18	  63
  18	  64
  18	  65
  18	  67
  18	  69
  18	  74
  18	  78
  18	  80
  18	  84
  18	  86
  18	  88
  18	  89
  18	  90
  18	  91
  18	  99
  18	 101
  18	 103
  18	 109
  18	 111
  18	 118
  19	  27
  19	  30
  19	  31
  19	  49
  19	  50
  19	  54
  19	  55
  19	  57
  19	  64
  19	  69
  19	  71
  19	  76
  19	  77
  19	  79
  19	  80
  19	  81
  19	  82
  19	  87
  19	  88
  19	  90
  19	  91
  19	  92
  19	  93
  19	  97
  19	  98
  19	  99
  19	 104
  19	 109
  19	 111
  19	 113
  19	 114
  19	 115
  19	 116
  19	 118
  19	 119
  20	  21
  20	  23
  20	  25
  20	  26
  20	  28
  20	  31
  20	  34
  20	  35
  20	  39
  20	  40
  20	  41
  20	  42
  20	  43
  20	  50
  20	  52
  20	  54
  20	  56
  20	  66
  20	  68
  20	  70
  20	  73
  20	  77
  20	  80
  20	  91
  20	 100
  20	 105
  20	 110
  20	 113
  20	 115
  21	  22
  21	  30
  21	  32
  21	  42
  21	  43
  21	  44
  21	  45
  21	  46
  21	  52
  21	  57
  21	  58
  21	  59
  21	  61
  21	  68
  21	  73
  21	  74
  21	  75
  21	  77
  21	  78
  21	  79
  21	  86
  21	  87
  21	  89
  21	  90
  21	  93
  21	  97
  21	  99
  21	 103
  21	 114
  21	 116
  22	  26
  22	  37
  22	  42
  22	  49
  22	  54
  22	  55
  22	  61
  22	  62
  22	  64
  22	  66
  22	  67
  22	  71
  22	  72
  22	  73
  22	  77
  22	  81
  22	  85
  22	  89
  22	  92
  22	  95
  22	 100
  22	 105
  22	 107
  22	 109
  22	 112
  22	 115
  23	  29
  23	  30
  23	  33
  23	  39
  23	  41
  23	  50
  23	  51
  23	  56
  23	  59
  23	  60
  23	  61
  23	  66
  23	  69
  23	  74
  23	  79
  23	  83
  23	  84
  23	  87
  23	  88
  23	  96
  23	  99
  23	 105
  23	 107
  23	 108
  23	 113
  23	 115
  23	 117
  24	  25
  24	  27
  24	  38
  24	  47
  24	  48
  24	  60
  24	  72
  24	  73
  24	  75
  24	  78
  24	  80
  24	  82
  24	  86
  24	  87
  24	  90
  24	  91
  24	  95
  24	 102
  24	 104
  24	 108
  24	 109
  24	 110
  24	 112
  24	 113
  24	 114
  25	  26
  25	  27
  25	  32
  25	  35
  25	  38
  25	  39
  25	  41
  25	  46
  25	  50
  25	  57
  25	  61
  25	  70
  25	  76
  25	  78
  25	  79
  25	  89
  25	  90
  25	  91
  25	 100
  25	 103
  25	 104
  25	 107
  25	 109
  25	 110
  25	 118
  25	 119
  26	  28
  26	  31
  26	  34
  26	  39
  26	  43
  26	  44
  26	  48
  26	  52
  26	  53
  26	  59
  26	  61
  26	  63
  26	  64
  26	  65
  26	  67
  26	  69
  26	  70
  26	  72
  26	  74
  26	  77
  26	  81
  26	  84
  26	  85
  26	  89
  26	  90
  26	  93
  26	  97
  26	  98
  26	 100
  26	 110
  26	 111
  26	 114
  26	 115
  26	 117
  27	  33
  27	  35
  27	  36
  27	  38
  27	  44
  27	  48
  27	  50
  27	  51
  27	  54
  27	  58
  27	  60
  27	  62
  27	  71
  27	  72
  27	  77
  27	  78
  27	  79
  27	  87
  27	  90
  27	  94
  27	  95
  27	  98
  27	  99
  27	 100
  27	 104
  27	 106
  27	 109
  27	 110
  27	 111
  28	  29
  28	  30
  28	  32
  28	  38
  28	  40
  28	  44
  28	  45
  28	  47
  28	  48
  28	  50
  28	  51
  28	  63
  28	  68
  28	  69
  28	  71
  28	  72
  28	  73
  28	  75
  28	  76
  28	  77
  28	  83
  28	  88
  28	  96
  28	  97
  28	  98
  28	  99
  28	 102
  28	 103
  28	 106
  28	 108
  28	 109
  28	 110
  28	 111
  28	 116
  28	 117
  28	 119
  29	  33
  29	  36
  29	  37
  29	  38
  29	  39
  29	  40
  29	  41
  29	  44
  29	  46
  29	  47
  29	  48
  29	  50
  29	  56
  29	  57
  29	  58
  29	  59
  29	  64
  29	  70
  29	  71
  29	  72
  29	  73
  29	  77
  29	  80
  29	  82
  29	  84
  29	  91
  29	  92
  29	  94
  29	  97
  29	  98
  29	 100
  29	 101
  29	 102
  29	 105
  29	 111
  29	 113
  29	 118
  29	 119
  30	  34
  30	  36
  30	  40
  30	  48
  30	  52
  30	  55
  30	  63
  30	  66
  30	  68
  30	  76
  30	  80
  30	  87
  30	  96
  30	  98
  30	 103
  30	 104
  30	 105
  30	 106
  30	 107
  30	 111
  30	 112
  30	 118
  31	  33
  31	  34
  31	  37
  31	  40
  31	  46
  31	  47
  31	  48
  31	  49
  31	  50
  31	  53
  31	  54
  31	  58
  31	  63
  31	  65
  31	  69
  31	  70
  31	  71
  31	  73
  31	  74
  31	  80
  31	  87
  31	  88
  31	  89
  31	  93
  31	  94
  31	  96
  31	  97
  31	 103
  31	 109
  31	 110
  31	 117
  31	 119
  32	  50
  32	  51
  32	  55
  32	  56
  32	  59
  32	  63
  32	  65
  32	  67
  32	  70
  32	  72
  32	  76
  32	  79
  32	  81
  32	  84
  32	  90
  32	  94
  32	  97
  32	  98
  32	 102
  32	 104
  32	 105
  32	 107
  32	 111
  32	 114
  32	 117
  33	  35
  33	  36
  33	  39
  33	  48
  33	  51
  33	  52
  33	  59
  33	  64
  33	  70
  33	  79
  33	  80
  33	  84
  33	  87
  33	  88
  33	  91
  33	  94
  33	  96
  33	  97
  33	  99
  33	 100
  33	 101
  33	 105
  33	 110
  33	 112
  33	 117
  34	  35
  34	  38
  34	  42
  34	  46
  34	  48
  34	  55
  34	  63
  34	  65
  34	  69
  34	  70
  34	  74
  34	  91
  34	  95
  34	  97
  34	 100
  34	 108
  34	 109
  34	 111
  34	 115
  34	 118
  35	  36
  35	  44
  35	  45
  35	  47
  35	  52
  35	  59
  35	  60
  35	  62
  35	  65
  35	  68
  35	  72
  35	  75
  35	  77
  35	  87
  35	  88
  35	  94
  35	  95
  35	  99
  35	 102
  35	 105
  35	 107
  35	 110
  35	 114
  35	 118
  36	  37
  36	  41
  36	  43
  36	  47
  36	  49
  36	  51
  36	  53
  36	  54
  36	  58
  36	  63
  36	  66
  36	  67
  36	  71
  36	  72
  36	  74
  36	  75
  36	  81
  36	  82
  36	  90
  36	  91
  36	  98
  36	  99
  36	 100
  36	 111
  36	 116
  37	  54
  37	  55
  37	  57
  37	  59
  37	  60
  37	  61
  37	  67
  37	  78
  37	  86
  37	  96
  37	  98
  37	 100
  37	 103
  37	 112
  37	 117
  37	 119
  38	  42
  38	  43
  38	  50
  38	  52
  38	  59
  38	  66
  38	  73
  38	  76
  38	  79
  38	  85
  38	  88
  38	  89
  38	  91
  38	 100
  38	 103
  38	 106
  38	 109
  38	 110
  38	 111
  38	 117
  38	 118
  39	  43
  39	  47
  39	  55
  39	  56
  39	  57
  39	  58
  39	  66
  39	  67
  39	  69
  39	  71
  39	  74
  39	  78
  39	  79
  39	  85
  39	  89
  39	  92
  39	  96
  39	 103
  39	 105
  39	 109
  39	 114
  40	  46
  40	  49
  40	  54
  40	  57
  40	  58
  40	  65
  40	  69
  40	  71
  40	  77
  40	  80
  40	  84
  40	  87
  40	  92
  40	  94
  40	  96
  40	  97
  40	 100
  40	 102
  40	 113
  40	 117
  40	 119
  41	  51
  41	  52
  41	  55
  41	  56
  41	  61
  41	  62
  41	  64
  41	  65
  41	  69
  41	  76
  41	  78
  41	  84
  41	  85
  41	  86
  41	  87
  41	  89
  41	  90
  41	  91
  41	  98
  41	 109
  41	 111
  41	 112
  41	 114
  41	 119
  42	  47
  42	  50
  42	  51
  42	  54
  42	  56
  42	  60
  42	  63
  42	  65
  42	  67
  42	  75
  42	  76
  42	  78
  42	  81
  42	  85
  42	  86
  42	  93
  42	  97
  42	  98
  42	 100
  42	 102
  42	 104
  43	  49
  43	  52
  43	  56
  43	  57
  43	  58
  43	  64
  43	  65
  43	  67
  43	  68
  43	  70
  43	  71
  43	  74
  43	  80
  43	  82
  43	  84
  43	  87
  43	  94
  43	  98
  43	 104
  43	 105
  43	 108
  43	 110
  43	 111
  43	 118
  43	 119
  44	  48
  44	  56
  44	  57
  44	  65
  44	  72
  44	  74
  44	  77
  44	  79
  44	  83
  44	  90
  44	  95
  44	  96
  44	  97
  44	 102
  44	 104
  44	 105
  44	 106
  44	 108
  44	 109
  44	 110
  44	 111
  44	 117
  44	 119
  45	  48
  45	  52
  45	  53
  45	  57
  45	  58
  45	  60
  45	  64
  45	  70
  45	  73
  45	  76
  45	  77
  45	  80
  45	  84
  45	  85
  45	  89
  45	  91
  45	  99
  45	 101
  45	 104
  45	 109
  45	 111
  45	 113
  45	 114
  45	 117
  46	  52
  46	  57
  46	  62
  46	  66
  46	  72
  46	  75
  46	  76
  46	  81
  46	  84
  46	  88
  46	  97
  46	  99
  46	 102
  46	 104
  46	 107
  46	 111
  46	 113
  46	 118
  47	  49
  47	  51
  47	  53
  47	  63
  47	  66
  47	  71
  47	  72
  47	  74
  47	  75
  47	  77
  47	  87
  47	  88
  47	  92
  47	  93
  47	  98
  47	 101
  47	 107
  47	 109
  47	 118
  47	 119
  48	  49
  48	  52
  48	  61
  48	  62
  48	  64
  48	  65
  48	  70
  48	  76
  48	  78
  48	  86
  48	  87
  48	  88
  48	  89
  48	  97
  48	  98
  48	  99
  48	 102
  48	 103
  48	 106
  48	 115
  48	 117
  49	  51
  49	  55
  49	  58
  49	  61
  49	  63
  49	  66
  49	  67
  49	  89
  49	  90
  49	  93
  49	  95
  49	  97
  49	  98
  49	  99
  49	 100
  49	 106
  49	 108
  49	 113
  49	 114
  50	  51
  50	  54
  50	  58
  50	  63
  50	  69
  50	  72
  50	  73
  50	  78
  50	  82
  50	  84
  50	  85
  50	  88
  50	  91
  50	  93
  50	  95
  50	  99
  50	 104
  50	 105
  50	 118
  51	  58
  51	  63
  51	  64
  51	  67
  51	  68
  51	  73
  51	  76
  51	  77
  51	  78
  51	  85
  51	  87
  51	  91
  51	  96
  51	  97
  51	 104
  51	 107
  51	 109
  51	 112
  51	 119
  52	  58
  52	  60
  52	  62
  52	  70
  52	  72
  52	  76
  52	  77
  52	  81
  52	  85
  52	  91
  52	  93
  52	  96
  52	 102
  52	 106
  52	 108
  52	 109
  52	 110
  52	 117
  52	 119
  53	  56
  53	  57
  53	  63
  53	  64
  53	  65
  53	  67
  53	  68
  53	  69
  53	  75
  53	  76
  53	  81
  53	  82
  53	  83
  53	  88
  53	  91
  53	  95
  53	  97
  53	  98
  53	 102
  53	 112
  53	 113
  53	 117
  53	 118
  54	  55
  54	  60
  54	  61
  54	  66
  54	  71
  54	  73
  54	  75
  54	  76
  54	  84
  54	  85
  54	  86
  54	  91
  54	  98
  54	  99
  54	 109
  54	 110
  54	 112
  54	 114
  54	 116
  54	 117
  55	  58
  55	  62
  55	  63
  55	  64
  55	  68
  55	  81
  55	  83
  55	  85
  55	  86
  55	  91
  55	  93
  55	  94
  55	  98
  55	 100
  55	 107
  55	 108
  55	 111
  55	 112
  55	 115
  55	 116
  55	 117
  56	  57
  56	  67
  56	  69
  56	  70
  56	  72
  56	  75
  56	  76
  56	  77
  56	  78
  56	  80
  56	  81
  56	  83
  56	  85
  56	  86
  56	  91
  56	  92
  56	  95
  56	  97
  56	 101
  56	 103
  56	 113
  56	 116
  56	 118
  57	  59
  57	  60
  57	  71
  57	  74
  57	  78
  57	  81
  57	  87
  57	  94
  57	  96
  57	 106
  57	 107
  57	 109
  57	 114
  57	 116
  57	 118
  58	  59
  58	  61
  58	  62
  58	  63
  58	  65
  58	  71
  58	  77
  58	  83
  58	  85
  58	  86
  58	  89
  58	  95
  58	  96
  58	 100
  58	 109
  58	 112
  58	 114
  58	 116
  58	 117
  59	  72
  59	  75
  59	  76
  59	  77
  59	  79
  59	  81
  59	  83
  59	  85
  59	  91
  59	  95
  59	 101
  59	 103
  59	 107
  59	 109
  59	 110
  59	 111
  59	 117
  59	 118
  60	  64
  60	  66
  60	  67
  60	  68
  60	  72
  60	  74
  60	  79
  60	  84
  60	  98
  60	  99
  60	 100
  60	 103
  60	 106
  61	  63
  61	  66
  61	  68
  61	  72
  61	  81
  61	  85
  61	  90
  61	  94
  61	  95
  61	 104
  61	 107
  61	 108
  61	 112
  61	 113
  61	 115
  62	  69
  62	  72
  62	  74
  62	  77
  62	  81
  62	  83
  62	  85
  62	  90
  62	  93
  62	  99
  62	 103
  62	 104
  62	 108
  62	 110
  62	 111
  62	 112
  63	  64
  63	  67
  63	  77
  63	  81
  63	  83
  63	  85
  63	  86
  63	  89
  63	  90
  63	  94
  63	  95
  63	  99
  63	 100
  63	 101
  63	 104
  63	 105
  63	 107
  63	 108
  63	 110
  63	 112
  63	 118
  64	  66
  64	  70
  64	  72
  64	  79
  64	  80
  64	  81
  64	  87
  64	  88
  64	  93
  64	  94
  64	  96
  64	  97
  64	  99
  64	 102
  64	 106
  64	 110
  64	 112
  65	  66
  65	  76
  65	  83
  65	  85
  65	  87
  65	  89
  65	  90
  65	  91
  65	  93
  65	  94
  65	  97
  65	  98
  65	  99
  65	 103
  65	 105
  65	 109
  65	 112
  66	  67
  66	  68
  66	  70
  66	  71
  66	  73
  66	  77
  66	  81
  66	  83
  66	  85
  66	  93
  66	  95
  66	  98
  66	 101
  66	 105
  66	 109
  66	 111
  66	 112
  66	 114
  66	 116
  66	 118
  66	 119
  67	  81
  67	  85
  67	  86
  67	  87
  67	  89
  67	  92
  67	  97
  67	 103
  67	 107
  67	 108
  67	 109
  67	 117
  68	  70
  68	  74
  68	  79
  68	  87
  68	  92
  68	  94
  68	  95
  68	  98
  68	 107
  68	 109
  68	 112
  68	 113
  68	 114
  68	 119
  69	  71
  69	  73
  69	  74
  69	  76
  69	  77
  69	  80
  69	  83
  69	  90
  69	  97
  69	  99
  69	 102
  69	 104
  69	 107
  69	 109
  69	 110
  69	 115
  69	 116
  70	  73
  70	  76
  70	  81
  70	  85
  70	  87
  70	  96
  70	 102
  70	 104
  70	 108
  70	 109
  70	 116
  71	  73
  71	  79
  71	  81
  71	  87
  71	  88
  71	  91
  71	  94
  71	 100
  71	 104
  71	 106
  71	 111
  71	 116
  71	 117
  72	  73
  72	  80
  72	  83
  72	  84
  72	  90
  72	  92
  72	 100
  72	 103
  72	 104
  72	 112
  72	 116
  72	 117
  73	  75
  73	  78
  73	  81
  73	  84
  73	  86
  73	  89
  73	  95
  73	  97
  73	  99
  73	 106
  73	 107
  73	 110
  73	 111
  73	 112
  74	  75
  74	  76
  74	  77
  74	  79
  74	  83
  74	  84
  74	  86
  74	  91
  74	  92
  74	  95
  74	  96
  74	  97
  74	  99
  74	 101
  74	 102
  74	 107
  74	 113
  74	 114
  74	 115
  74	 119
  75	  85
  75	  88
  75	  93
  75	  94
  75	  96
  75	 103
  75	 104
  75	 105
  75	 107
  75	 109
  75	 112
  75	 116
  76	  79
  76	  81
  76	  82
  76	  84
  76	  85
  76	  87
  76	  88
  76	  89
  76	  90
  76	  95
  76	  96
  76	 100
  76	 104
  76	 107
  76	 110
  76	 113
  76	 114
  76	 117
  77	  80
  77	  81
  77	  82
  77	  85
  77	  87
  77	  90
  77	  97
  77	 102
  77	 104
  77	 105
  77	 116
  77	 119
  78	  81
  78	  83
  78	  84
  78	  94
  78	  95
  78	  97
  78	  98
  78	  99
  78	 104
  78	 105
  78	 116
  79	  81
  79	  82
  79	  90
  79	  91
  79	  92
  79	  96
  79	 100
  79	 110
  79	 111
  79	 112
  79	 115
  79	 119
  80	  82
  80	  84
  80	  86
  80	  87
  80	  90
  80	  97
  80	 101
  80	 102
  80	 103
  80	 107
  80	 108
  80	 110
  80	 114
  81	  86
  81	  87
  81	  90
  81	 100
  81	 101
  81	 104
  81	 108
  82	  83
  82	  87
  82	  88
  82	  91
  82	  93
  82	  99
  82	 100
  82	 107
  82	 108
  82	 109
  82	 111
  82	 114
  82	 115
  82	 118
  83	  88
  83	  90
  83	  92
  83	  93
  83	  94
  83	 100
  83	 102
  83	 106
  83	 109
  83	 111
  84	  86
  84	  88
  84	  89
  84	  90
  84	  92
  84	  98
  84	  99
  84	 107
  84	 109
  84	 110
  84	 112
  84	 115
  84	 117
  85	  87
  85	  91
  85	  94
  85	 100
  85	 105
  85	 112
  85	 117
  86	  87
  86	  90
  86	  91
  86	  95
  86	  96
  86	  97
  86	 101
  86	 102
  86	 104
  86	 110
  86	 112
  86	 113
  87	  89
  87	  95
  87	  97
  87	  98
  87	 101
  87	 102
  87	 103
  87	 106
  87	 108
  87	 113
  87	 119
  88	  89
  88	  91
  88	  92
  88	  94
  88	  95
  88	  97
  88	 100
  88	 102
  88	 104
  88	 109
  88	 110
  88	 111
  88	 112
  88	 113
  88	 115
  88	 118
  88	 119
  89	  90
  89	  92
  89	  94
  89	  96
  89	  97
  89	 104
  89	 105
  89	 108
  89	 109
  90	  95
  90	  97
  90	 101
  90	 103
  90	 106
  90	 108
  90	 109
  90	 111
  90	 113
  90	 115
  90	 116
  90	 119
  91	  92
  91	  93
  91	  95
  91	  96
  91	 101
  91	 103
  91	 105
  91	 106
  91	 107
  91	 108
  91	 111
  92	  98
  92	  99
  92	 102
  92	 104
  92	 110
  92	 113
  92	 114
  93	  94
  93	  95
  93	  99
  93	 100
  93	 103
  93	 104
  93	 108
  93	 118
  94	  95
  94	 100
  94	 101
  94	 107
  94	 109
  94	 112
  94	 114
  94	 116
  94	 118
  95	  99
  95	 101
  95	 103
  95	 106
  95	 107
  95	 110
  95	 112
  96	 100
  96	 101
  96	 105
  96	 109
  96	 112
  96	 119
  97	 101
  97	 104
  97	 107
  97	 108
  97	 111
  97	 115
  97	 117
  98	 115
  98	 117
  99	 104
  99	 105
  99	 108
  99	 117
  99	 118
 100	 101
 100	 102
 100	 103
 100	 107
 100	 109
 100	 112
 100	 114
 100	 116
 100	 118
 100	 119
 101	 102
 101	 104
 101	 111
 101	 112
 101	 118
 102	 109
 102	 113
 102	 118
 103	 108
 103	 109
 103	 112
 103	 113
 103	 118
 104	 108
 104	 112
 104	 118
 105	 110
 105	 111
 105	 116
 105	 117
 105	 119
 106	 116
 107	 108
 107	 112
 107	 118
 108	 110
 108	 112
 108	 114
 108	 117
 108	 118
 109	 110
 109	 111
 109	 114
 109	 117
 109	 119
 110	 113
 110	 115
 110	 119
 111	 112
 111	 114
 111	 115
 111	 117
 112	 114
 112	 116
 112	 117
 113	 114
 113	 115
 113	 118
 114	 119
 116	 117
;
